\ENCODING=ISO-8859-1
\Problem name: beavma.mps

Maximize
 OBJ.....: 7530 x....001         -6800 x....002         -4945 x....003         + 15316 x....004         -6944 x....005         -7345 x....006         + 3681 x....007         -13710 x....008         + 15048 x....009         -10448 x....010         -18260 x....011         -13712 x....012         + 8244 x....013         + 3412 x....014         -7797 x....015         -7438 x....016         + 4949 x....017         + 18044 x....018         + 18507 x....019         + 8252 x....020         + 8703 x....021         + 16865 x....022         -11120 x....023         -5509 x....024         + 6295 x....025         + 13952 x....026         -4006 x....027         -15799 x....028         -9137 x....029         -1617 x....030         -8462 x....031         -13902 x....032         + 18189 x....033         + 6043 x....034         -10881 x....035         -1049 x....036         -13596 x....037         + 19407 x....038         + 11847 x....039         -17999 x....040         -10492 x....041         + 13038 x....042         -12261 x....043         -14543 x....044         -3001 x....045         + 6548 x....046         -2531 x....047         -10347 x....048         + 5141 x....049         + 3681 x....050         + 17355 x....051         -5607 x....052         + 8252 x....053         -6060 x....054         + 15490 x....055         + 2252 x....056         -11558 x....057         -810 x....058         + 5903 x....059         + 5911 x....060         + 17023 x....061         + 16891 x....062         + 18616 x....063         -15984 x....064         + 10640 x....065         -11716 x....066         + 2417 x....067         + 16494 x....068         -11760 x....069         + 1970 x....070         + 17945 x....071         + 4355 x....072         -4443 x....073         -6611 x....074         + 9262 x....075         + 19162 x....076         + 19387 x....077         -5563 x....078         -10636 x....079         + 5077 x....080         -14177 x....081         -5576 x....082         + 18921 x....083         + 13525 x....084         + 7815 x....085         -16785 x....086         -3674 x....087         -16038 x....088         + 1855 x....089         -10066 x....090         + 9323 x....091         + 6583 x....092         -5469 x....093         + 8488 x....094         + 10050 x....095         -14280 x....096         -15522 x....097         + 172 x....098         -17237 x....099         -7832 x....100         -17309 x....101         -11587 x....102         -15772 x....103         + 4854 x....104         + 1252 x....105         + 12941 x....106         + 4565 x....107         + 1188 x....108         -4917 x....109         -18366 x....110         -6030 x....111         + 356 x....112         -4491 x....113         + 596 x....114         -5569 x....115         -8971 x....116         + 3262 x....117         + 17363 x....118         -5559 x....119         -14334 x....120         -12153 x....121         -8531 x....122         + 11700 x....123         + 1828 x....124         -12337 x....125         + 9455 x....126         + 6998 x....127         -8409 x....128         -9824 x....129         + 16367 x....130         + 10365 x....131         -526 x....132         -7515 x....133         + 14044 x....134         -15123 x....135         + 13187 x....136         + 14690 x....137         + 16049 x....138         + 2080 x....139         -9678 x....140         + 17133 x....141         + 15500 x....142         + 10128 x....143         + 347 x....144         -3354 x....145         -7736 x....146         + 17982 x....147         -12387 x....148         -9823 x....149         -7028 x....150         -7271 x....151         -2526 x....152         + 3892 x....153         -7866 x....154         -12993 x....155         + 11005 x....156         -17862 x....157         + 13455 x....158         -16855 x....159         -1079 x....160         + 17527 x....161         -18785 x....162         + 17845 x....163         -9439 x....164         + 14709 x....165         -16729 x....166         -8547 x....167         + 9948 x....168         + 18770 x....169         + 12983 x....170         -12025 x....171         -15292 x....172         + 16188 x....173         + 17554 x....174         + 11661 x....175         + 539 x....176         -2477 x....177         + 10193 x....178         + 7602 x....179         + 7150 x....180         -9130 x....181         -11963 x....182         -7671 x....183         + 14212 x....184         -379 x....185         -1214 x....186         + 12922 x....187         + 8366 x....188         -54 x....189         -16228 x....190         -12164 x....191         + 5178 x....192         -15562 x....193         -6614 x....194         + 15189 x....195         -13148 y....001         -3893 y....002         -5653 y....003         -15494 y....004         + 2583 y....005         -12121 y....006         -8069 y....007         + 13897 y....008         -8227 y....009         -2810 y....010         + 13263 y....011         + 11762 y....012         + 14164 y....013         + 4005 y....014         -86 y....015         + 9019 y....016         + 14326 y....017         + 14557 y....018         -18102 y....019         + 16243 y....020         -5273 y....021         + 134 y....022         + 16871 y....023         -9202 y....024         -12214 y....025         -18808 y....026         -1916 y....027         + 12414 y....028         -7764 y....029         + 10920 y....030         + 15309 y....031         -1461 y....032         -5267 y....033         -9795 y....034         + 2495 y....035         -14979 y....036         -2465 y....037         + 13876 y....038         + 18368 y....039         + 15914 y....040         -1228 y....041         + 19336 y....042         + 8225 y....043         -6515 y....044         + 11047 y....045         -4156 y....046         -16947 y....047         + 13078 y....048         -9050 y....049         -8443 y....050         + 9870 y....051         + 12284 y....052         + 18298 y....053         + 14446 y....054         -16369 y....055         -13367 y....056         + 15089 y....057         + 8322 y....058         + 18497 y....059         -4970 y....060         -209 y....061         -17390 y....062         + 13019 y....063         -17771 y....064         -7734 y....065         + 3219 y....066         -13300 y....067         + 16407 y....068         + 4801 y....069         -7227 y....070         + 12870 y....071         -15878 y....072         -185 y....073         + 1644 y....074         + 4213 y....075         -8589 y....076         -14806 y....077         + 13872 y....078         -14962 y....079         + 2750 y....080         -14021 y....081         + 14358 y....082         -4417 y....083         -15174 y....084         + 16510 y....085         + 5821 y....086         -1935 y....087         + 12148 y....088         -5308 y....089         + 4267 y....090         -5117 y....091         -17812 y....092         + 6328 y....093         -4392 y....094         -8976 y....095         -13701 y....096         + 18277 y....097         -2826 y....098         -16745 y....099         + 10783 y....100         + 16554 y....101         + 15575 y....102         + 14355 y....103         -3082 y....104         + 4924 y....105         + 6273 y....106         + 7779 y....107         + 9568 y....108         + 695 y....109         + 12267 y....110         -7132 y....111         + 13280 y....112         + 14330 y....113         + 15057 y....114         -14189 y....115         + 11389 y....116         + 1427 y....117         + 3326 y....118         + 11242 y....119         -16176 y....120         -4702 y....121         -6169 y....122         -7381 y....123         -10669 y....124         + 8889 y....125         + 3093 y....126         -4920 y....127         + 14871 y....128         -19184 y....129         -2215 y....130         + 6204 y....131         -14925 y....132         + 1065 y....133         + 8264 y....134         + 8599 y....135         -13461 y....136         -4913 y....137         -3073 y....138         -16188 y....139         -16513 y....140         -3101 y....141         + 3286 y....142         + 16217 y....143         -1065 y....144         + 6049 y....145         -10267 y....146         -1971 y....147         -4819 y....148         + 12509 y....149         -3023 y....150         -1544 y....151         -4488 y....152         + 10258 y....153         + 10525 y....154         + 4294 y....155         + 6852 y....156         + 1323 y....157         -12921 y....158         + 2272 y....159         + 8745 y....160         + 4315 y....161         -10975 y....162         + 13271 y....163         -14071 y....164         + 16740 y....165         + 2419 y....166         -926 y....167         -468 y....168         -12948 y....169         + 9493 y....170         + 2469 y....171         + 10557 y....172         + 484 y....173         -765 y....174         -2803 y....175         -12918 y....176         + 8418 y....177         -17068 y....178         + 1714 y....179         + 8632 y....180         + 6515 y....181         -12125 y....182         -8151 y....183         -2678 y....184         -13895 y....185         -16152 y....186         -8121 y....187         + 6878 y....188         -9622 y....189         + 13601 y....190         -3828 y....191         -17602 y....192         -9668 y....193         -2852 y....194         -12223 y....195
Subject To
 CNS...01: x....001 + x....009 - x....188  = 0
 CNS...02: - x....001 + x....002 - x....003 + x....019  = 0
 CNS...03: - x....019 + x....020 - x....021 + x....037 - x....038  = -66
 CNS...04: - x....002 + x....003 - x....004 + x....005 + x....043  = 0
 CNS...05: - x....037 + x....038 + x....039 - x....040  = -100
 CNS...06: - x....020 + x....021 + x....022 - x....023  = -84
 CNS...07: - x....022 + x....023 + x....024 - x....025  = -88
 CNS...08: - x....024 + x....025 + x....026 - x....027  = -56
 CNS...09: - x....026 + x....027 + x....028 - x....029 + x....054 - x....055
            = -110
 CNS...10: - x....028 + x....029 + x....030 - x....031  = -70
 CNS...11: - x....030 + x....031 + x....032 - x....033  = -256
 CNS...12: - x....032 + x....033 - x....034 + x....035  = -2136
 CNS...13: x....034 - x....035 - x....036  = -127
 CNS...14: - x....009 - x....010 + x....036  = 0
 CNS...15: - x....039 + x....040 + x....041 - x....042 - x....043  = -70
 CNS...16: - x....061 + x....062 + x....063 - x....064  = -65
 CNS...17: - x....041 + x....042 + x....044 - x....045 + x....061 - x....062
            = -225
 CNS...18: - x....063 + x....064 + x....065 - x....066  = -138
 CNS...19: - x....065 + x....066 + x....067 - x....068  = -228
 CNS...20: - x....067 + x....068 + x....069 - x....070  = -680
 CNS...21: - x....069 + x....070 - x....071 + x....072 - x....073 + x....074
            = -227
 CNS...22: - x....048 + x....049 - x....050 + x....051 - x....056 + x....057
           + x....071 - x....072  = -73
 CNS...23: - x....046 + x....047 + x....048 - x....049  = -263
 CNS...24: - x....044 + x....045 + x....046 - x....047  = -321
 CNS...25: x....052 - x....053 - x....054 + x....055  = -3
 CNS...26: x....050 - x....051 - x....052 + x....053  = -131
 CNS...27: x....058 - x....059 - x....060  = -86
 CNS...28: x....056 - x....057 - x....058 + x....059 + x....156 - x....157
            = -11
 CNS...29: x....154 - x....155 - x....156 + x....157  = -40
 CNS...30: x....010 - x....011 + x....060  = 0
 CNS...31: x....004 - x....005 - x....006 + x....085 + x....086 - x....195  = 0
 CNS...32: x....083 + x....084 - x....085 - x....086 - x....194 + x....195
            = -46
 CNS...33: x....081 + x....082 - x....083 - x....084 - x....193 + x....194
            = -832
 CNS...34: x....079 - x....080 - x....081 - x....082 + x....101 - x....102
           + x....193  = -29
 CNS...35: x....077 - x....078 - x....079 + x....080  = -63
 CNS...36: - x....075 + x....076 - x....077 + x....078 - x....087 + x....088
            = -270
 CNS...37: x....073 - x....074 + x....075 - x....076  = -119
 CNS...38: x....099 - x....100 - x....101 + x....102  = -89
 CNS...39: x....097 - x....098 - x....099 + x....100  = -552
 CNS...40: x....095 - x....096 - x....097 + x....098  = -94
 CNS...41: x....093 - x....094 - x....095 + x....096  = -85
 CNS...42: - x....091 + x....092 - x....093 + x....094  = -139
 CNS...43: x....089 - x....090 + x....091 - x....092  = -480
 CNS...44: x....087 - x....088 - x....089 + x....090 - x....103 + x....104
            = -490
 CNS...45: x....103 - x....104 - x....105 + x....106  = -219
 CNS...46: x....105 - x....106 - x....107 + x....108 - x....143 + x....144
            = -175
 CNS...47: x....107 - x....108 - x....109 + x....110  = -374
 CNS...48: x....109 - x....110 - x....111 + x....112  = -265
 CNS...49: x....111 - x....112 - x....113 + x....114  = -51
 CNS...50: x....113 - x....114 - x....115  = -374
 CNS...51: x....115 - x....116 - x....117  = -259
 CNS...52: x....116 + x....117 - x....118 - x....119 - x....122 - x....123
           + x....124 + x....125  = -203
 CNS...53: x....122 + x....123 - x....124 - x....125 - x....126 - x....127
           + x....128 + x....129  = -306
 CNS...54: x....126 + x....127 - x....128 - x....129 - x....130 - x....131
           + x....132 + x....133  = -480
 CNS...55: x....130 + x....131 - x....132 - x....133 - x....134 - x....135
           + x....136 + x....137  = -431
 CNS...56: x....134 + x....135 - x....136 - x....137 - x....138 + x....139
            = -315
 CNS...57: x....138 - x....139 - x....140 + x....141  = -200
 CNS...58: x....140 - x....141 - x....142  = -24
 CNS...59: x....006 - x....007 + x....142  = 0
 CNS...60: x....007 - x....008 + x....017 + x....018  = 0
 CNS...61: x....008 - x....190  = 0
 CNS...62: x....015 - x....016 - x....017 - x....018 + x....120 + x....121
            = -83
 CNS...63: x....118 + x....119 - x....120 - x....121  = -205
 CNS...64: x....143 - x....144 - x....145 + x....146  = -100
 CNS...65: x....145 - x....146 - x....147 + x....148  = -124
 CNS...66: x....147 - x....148 - x....149 + x....192  = -90
 CNS...67: x....149 - x....150 + x....191 - x....192  = 0
 CNS...68: x....150 - x....151 - x....154 + x....155 - x....191  = -40
 CNS...69: x....151 - x....152 + x....187  = 0
 CNS...70: x....185 - x....186 - x....187  = -72
 CNS...71: - x....183 + x....184 - x....185 + x....186  = -149
 CNS...72: - x....180 + x....181 + x....183 - x....184  = -31
 CNS...73: x....178 - x....179  = -145
 CNS...74: x....165 - x....166 - x....167 + x....168 + x....176 - x....177
           - x....178 + x....179  = -24
 CNS...75: x....163 - x....164 - x....165 + x....166 - x....176 + x....177
            = -156
 CNS...76: x....161 - x....162 - x....163 + x....164  = -325
 CNS...77: x....159 - x....160 - x....161 + x....162  = -100
 CNS...78: - x....158 - x....159 + x....160  = -106
 CNS...79: - x....014 - x....015 + x....016 + x....158  = 0
 CNS...80: - x....013 + x....014 + x....172  = 0
 CNS...81: x....171 - x....172 - x....173 + x....174  = 0
 CNS...82: x....169 - x....170 - x....171  = -38
 CNS...83: x....167 - x....168 - x....169 + x....170  = -49
 CNS...84: x....173 - x....174 - x....175 + x....182  = 0
 CNS...85: x....180 - x....181 - x....182  = -50
 CNS...86: x....152 - x....153 + x....175  = 0
 CNS...87: x....011 - x....012 + x....153  = 0
 CNS...88: x....012 + x....013 - x....189  = 0
 CNS...89: x....188 + x....189 + x....190  = 14505
 TREE..01: y....188 <= 1
 TREE..02: y....001 + y....003 <= 1
 TREE..03: y....019 + y....021 + y....038 <= 1
 TREE..04: y....002 + y....004 <= 1
 TREE..05: y....037 + y....040 <= 1
 TREE..06: y....020 + y....023 <= 1
 TREE..07: y....022 + y....025 <= 1
 TREE..08: y....024 + y....027 <= 1
 TREE..09: y....026 + y....029 + y....055 <= 1
 TREE..10: y....028 + y....031 <= 1
 TREE..11: y....030 + y....033 <= 1
 TREE..12: y....032 + y....034 <= 1
 TREE..13: y....035 + y....036 <= 1
 TREE..14: y....009 + y....010 <= 1
 TREE..15: y....039 + y....042 + y....043 <= 1
 TREE..16: y....061 + y....064 <= 1
 TREE..17: y....041 + y....045 + y....062 <= 1
 TREE..18: y....063 + y....066 <= 1
 TREE..19: y....065 + y....068 <= 1
 TREE..20: y....067 + y....070 <= 1
 TREE..21: y....069 + y....071 + y....073 <= 1
 TREE..22: y....048 + y....050 + y....056 + y....072 <= 1
 TREE..23: y....046 + y....049 <= 1
 TREE..24: y....044 + y....047 <= 1
 TREE..25: y....053 + y....054 <= 1
 TREE..26: y....051 + y....052 <= 1
 TREE..27: y....059 + y....060 <= 1
 TREE..28: y....057 + y....058 + y....157 <= 1
 TREE..29: y....155 + y....156 <= 1
 TREE..30: y....011 <= 1
 TREE..31: y....005 + y....006 + y....195 <= 1
 TREE..32: y....085 + y....086 + y....194 <= 1
 TREE..33: y....083 + y....084 + y....193 <= 1
 TREE..34: y....080 + y....081 + y....082 + y....102 <= 1
 TREE..35: y....078 + y....079 <= 1
 TREE..36: y....075 + y....077 + y....087 <= 1
 TREE..37: y....074 + y....076 <= 1
 TREE..38: y....100 + y....101 <= 1
 TREE..39: y....098 + y....099 <= 1
 TREE..40: y....096 + y....097 <= 1
 TREE..41: y....094 + y....095 <= 1
 TREE..42: y....091 + y....093 <= 1
 TREE..43: y....090 + y....092 <= 1
 TREE..44: y....088 + y....089 + y....103 <= 1
 TREE..45: y....104 + y....105 <= 1
 TREE..46: y....106 + y....107 + y....143 <= 1
 TREE..47: y....108 + y....109 <= 1
 TREE..48: y....110 + y....111 <= 1
 TREE..49: y....112 + y....113 <= 1
 TREE..50: y....114 + y....115 <= 1
 TREE..51: y....116 + y....117 <= 1
 TREE..52: y....118 + y....119 + y....122 + y....123 <= 1
 TREE..53: y....124 + y....125 + y....126 + y....127 <= 1
 TREE..54: y....128 + y....129 + y....130 + y....131 <= 1
 TREE..55: y....132 + y....133 + y....134 + y....135 <= 1
 TREE..56: y....136 + y....137 + y....138 <= 1
 TREE..57: y....139 + y....140 <= 1
 TREE..58: y....141 + y....142 <= 1
 TREE..59: y....007 <= 1
 TREE..60: y....008 <= 1
 TREE..61: y....190 <= 1
 TREE..62: y....016 + y....017 + y....018 <= 1
 TREE..63: y....120 + y....121 <= 1
 TREE..64: y....144 + y....145 <= 1
 TREE..65: y....146 + y....147 <= 1
 TREE..66: y....148 + y....149 <= 1
 TREE..67: y....150 + y....192 <= 1
 TREE..68: y....151 + y....154 + y....191 <= 1
 TREE..69: y....152 <= 1
 TREE..70: y....186 + y....187 <= 1
 TREE..71: y....183 + y....185 <= 1
 TREE..72: y....180 + y....184 <= 1
 TREE..73: y....179 <= 1
 TREE..74: y....166 + y....167 + y....177 + y....178 <= 1
 TREE..75: y....164 + y....165 + y....176 <= 1
 TREE..76: y....162 + y....163 <= 1
 TREE..77: y....160 + y....161 <= 1
 TREE..78: y....158 + y....159 <= 1
 TREE..79: y....014 + y....015 <= 1
 TREE..80: y....013 <= 1
 TREE..81: y....172 + y....173 <= 1
 TREE..82: y....170 + y....171 <= 1
 TREE..83: y....168 + y....169 <= 1
 TREE..84: y....174 + y....175 <= 1
 TREE..85: y....181 + y....182 <= 1
 TREE..86: y....153 <= 1
 TREE..87: y....012 <= 1
 TREE..88: y....189 <= 1
 UC...001: x....001 - 10754 y....001 <= 0
 UC...002: x....002 - 10754 y....002 <= 0
 UC...003: x....003 - 10754 y....003 <= 0
 UC...004: x....004 - 10754 y....004 <= 0
 UC...005: x....005 - 10754 y....005 <= 0
 UC...006: x....006 - 10754 y....006 <= 0
 UC...007: x....007 - 12972 y....007 <= 0
 UC...008: x....008 - 14203 y....008 <= 0
 UC...009: x....009 - 10754 y....009 <= 0
 UC...010: x....010 - 10754 y....010 <= 0
 UC...011: x....011 - 10754 y....011 <= 0
 UC...012: x....012 - 11999 y....012 <= 0
 UC...013: x....013 - 14505 y....013 <= 0
 UC...014: x....014 - 14203 y....014 <= 0
 UC...015: x....015 - 14203 y....015 <= 0
 UC...016: x....016 - 14203 y....016 <= 0
 UC...017: x....017 - 4500 y....017 <= 0
 UC...018: x....018 - 14203 y....018 <= 0
 UC...019: x....019 - 10754 y....019 <= 0
 UC...020: x....020 - 10754 y....020 <= 0
 UC...021: x....021 - 10754 y....021 <= 0
 UC...022: x....022 - 10754 y....022 <= 0
 UC...023: x....023 - 10754 y....023 <= 0
 UC...024: x....024 - 56 y....024 <= 0
 UC...025: x....025 - 10754 y....025 <= 0
 UC...026: x....026 - 10754 y....026 <= 0
 UC...027: x....027 - 10754 y....027 <= 0
 UC...028: x....028 - 10754 y....028 <= 0
 UC...029: x....029 - 10754 y....029 <= 0
 UC...030: x....030 - 10754 y....030 <= 0
 UC...031: x....031 - 10754 y....031 <= 0
 UC...032: x....032 - 10754 y....032 <= 0
 UC...033: x....033 - 10754 y....033 <= 0
 UC...034: x....034 - 10754 y....034 <= 0
 UC...035: x....035 - 10754 y....035 <= 0
 UC...036: x....036 - 10754 y....036 <= 0
 UC...037: x....037 - 10754 y....037 <= 0
 UC...038: x....038 - 10754 y....038 <= 0
 UC...039: x....039 - 10754 y....039 <= 0
 UC...040: x....040 - 10754 y....040 <= 0
 UC...041: x....041 - 10754 y....041 <= 0
 UC...042: x....042 - 10754 y....042 <= 0
 UC...043: x....043 - 10754 y....043 <= 0
 UC...044: x....044 - 10754 y....044 <= 0
 UC...045: x....045 - 10754 y....045 <= 0
 UC...046: x....046 - 10754 y....046 <= 0
 UC...047: x....047 - 10754 y....047 <= 0
 UC...048: x....048 - 10754 y....048 <= 0
 UC...049: x....049 - 10754 y....049 <= 0
 UC...050: x....050 - 10754 y....050 <= 0
 UC...051: x....051 - 10754 y....051 <= 0
 UC...052: x....052 - 10754 y....052 <= 0
 UC...053: x....053 - 10754 y....053 <= 0
 UC...054: x....054 - 10754 y....054 <= 0
 UC...055: x....055 - 10754 y....055 <= 0
 UC...056: x....056 - 10754 y....056 <= 0
 UC...057: x....057 - 10754 y....057 <= 0
 UC...058: x....058 - 10754 y....058 <= 0
 UC...059: x....059 - 10754 y....059 <= 0
 UC...060: x....060 - 10754 y....060 <= 0
 UC...061: x....061 - 65 y....061 <= 0
 UC...062: x....062 - 10754 y....062 <= 0
 UC...063: x....063 - 10754 y....063 <= 0
 UC...064: x....064 - 10754 y....064 <= 0
 UC...065: x....065 - 10754 y....065 <= 0
 UC...066: x....066 - 10754 y....066 <= 0
 UC...067: x....067 - 10754 y....067 <= 0
 UC...068: x....068 - 10754 y....068 <= 0
 UC...069: x....069 - 10754 y....069 <= 0
 UC...070: x....070 - 10754 y....070 <= 0
 UC...071: x....071 - 10754 y....071 <= 0
 UC...072: x....072 - 10754 y....072 <= 0
 UC...073: x....073 - 10754 y....073 <= 0
 UC...074: x....074 - 10754 y....074 <= 0
 UC...075: x....075 - 10754 y....075 <= 0
 UC...076: x....076 - 10754 y....076 <= 0
 UC...077: x....077 - 10754 y....077 <= 0
 UC...078: x....078 - 10754 y....078 <= 0
 UC...079: x....079 - 10754 y....079 <= 0
 UC...080: x....080 - 10754 y....080 <= 0
 UC...081: x....081 - 6000 y....081 <= 0
 UC...082: x....082 - 10754 y....082 <= 0
 UC...083: x....083 - 5000 y....083 <= 0
 UC...084: x....084 - 10754 y....084 <= 0
 UC...085: x....085 - 18000 y....085 <= 0
 UC...086: x....086 - 10754 y....086 <= 0
 UC...087: x....087 - 10754 y....087 <= 0
 UC...088: x....088 - 10754 y....088 <= 0
 UC...089: x....089 - 10754 y....089 <= 0
 UC...090: x....090 - 10754 y....090 <= 0
 UC...091: x....091 - 10754 y....091 <= 0
 UC...092: x....092 - 10754 y....092 <= 0
 UC...093: x....093 - 10754 y....093 <= 0
 UC...094: x....094 - 10754 y....094 <= 0
 UC...095: x....095 - 10754 y....095 <= 0
 UC...096: x....096 - 10754 y....096 <= 0
 UC...097: x....097 - 10754 y....097 <= 0
 UC...098: x....098 - 10754 y....098 <= 0
 UC...099: x....099 - 10754 y....099 <= 0
 UC...100: x....100 - 10754 y....100 <= 0
 UC...101: x....101 - 10754 y....101 <= 0
 UC...102: x....102 - 10754 y....102 <= 0
 UC...103: x....103 - 10754 y....103 <= 0
 UC...104: x....104 - 10754 y....104 <= 0
 UC...105: x....105 - 10754 y....105 <= 0
 UC...106: x....106 - 10754 y....106 <= 0
 UC...107: x....107 - 10754 y....107 <= 0
 UC...108: x....108 - 10754 y....108 <= 0
 UC...109: x....109 - 10754 y....109 <= 0
 UC...110: x....110 - 10754 y....110 <= 0
 UC...111: x....111 - 10754 y....111 <= 0
 UC...112: x....112 - 10754 y....112 <= 0
 UC...113: x....113 - 10754 y....113 <= 0
 UC...114: x....114 - 10754 y....114 <= 0
 UC...115: x....115 - 10754 y....115 <= 0
 UC...116: x....116 - 5000 y....116 <= 0
 UC...117: x....117 - 11013 y....117 <= 0
 UC...118: x....118 - 3750 y....118 <= 0
 UC...119: x....119 - 12972 y....119 <= 0
 UC...120: x....120 - 2400 y....120 <= 0
 UC...121: x....121 - 13177 y....121 <= 0
 UC...122: x....122 - 3571.428571 y....122 <= 0
 UC...123: x....123 - 12972 y....123 <= 0
 UC...124: x....124 - 3571.428571 y....124 <= 0
 UC...125: x....125 - 12972 y....125 <= 0
 UC...126: x....126 - 5000 y....126 <= 0
 UC...127: x....127 - 12972 y....127 <= 0
 UC...128: x....128 - 5000 y....128 <= 0
 UC...129: x....129 - 12972 y....129 <= 0
 UC...130: x....130 - 6000 y....130 <= 0
 UC...131: x....131 - 12972 y....131 <= 0
 UC...132: x....132 - 6000 y....132 <= 0
 UC...133: x....133 - 12972 y....133 <= 0
 UC...134: x....134 - 4000 y....134 <= 0
 UC...135: x....135 - 12972 y....135 <= 0
 UC...136: x....136 - 4000 y....136 <= 0
 UC...137: x....137 - 12972 y....137 <= 0
 UC...138: x....138 - 746 y....138 <= 0
 UC...139: x....139 - 12972 y....139 <= 0
 UC...140: x....140 - 12972 y....140 <= 0
 UC...141: x....141 - 12972 y....141 <= 0
 UC...142: x....142 - 12972 y....142 <= 0
 UC...143: x....143 - 10754 y....143 <= 0
 UC...144: x....144 - 10754 y....144 <= 0
 UC...145: x....145 - 10754 y....145 <= 0
 UC...146: x....146 - 10754 y....146 <= 0
 UC...147: x....147 - 10754 y....147 <= 0
 UC...148: x....148 - 10754 y....148 <= 0
 UC...149: x....149 - 10754 y....149 <= 0
 UC...150: x....150 - 10754 y....150 <= 0
 UC...151: x....151 - 394 y....151 <= 0
 UC...152: x....152 - 11056 y....152 <= 0
 UC...153: x....153 - 11999 y....153 <= 0
 UC...154: x....154 - 254 y....154 <= 0
 UC...155: x....155 - 10754 y....155 <= 0
 UC...156: x....156 - 10754 y....156 <= 0
 UC...157: x....157 - 10754 y....157 <= 0
 UC...158: x....158 - 943 y....158 <= 0
 UC...159: x....159 - 943 y....159 <= 0
 UC...160: x....160 - 943 y....160 <= 0
 UC...161: x....161 - 943 y....161 <= 0
 UC...162: x....162 - 943 y....162 <= 0
 UC...163: x....163 - 943 y....163 <= 0
 UC...164: x....164 - 943 y....164 <= 0
 UC...165: x....165 - 943 y....165 <= 0
 UC...166: x....166 - 943 y....166 <= 0
 UC...167: x....167 - 943 y....167 <= 0
 UC...168: x....168 - 943 y....168 <= 0
 UC...169: x....169 - 943 y....169 <= 0
 UC...170: x....170 - 943 y....170 <= 0
 UC...171: x....171 - 943 y....171 <= 0
 UC...172: x....172 - 1245 y....172 <= 0
 UC...173: x....173 - 1245 y....173 <= 0
 UC...174: x....174 - 1245 y....174 <= 0
 UC...175: x....175 - 1245 y....175 <= 0
 UC...176: x....176 - 943 y....176 <= 0
 UC...177: x....177 - 943 y....177 <= 0
 UC...178: x....178 - 943 y....178 <= 0
 UC...179: x....179 - 943 y....179 <= 0
 UC...180: x....180 - 302 y....180 <= 0
 UC...181: x....181 - 302 y....181 <= 0
 UC...182: x....182 - 302 y....182 <= 0
 UC...183: x....183 - 302 y....183 <= 0
 UC...184: x....184 - 302 y....184 <= 0
 UC...185: x....185 - 302 y....185 <= 0
 UC...186: x....186 - 302 y....186 <= 0
 UC...187: x....187 - 302 y....187 <= 0
 UC...188: x....188 - 10754 y....188 <= 0
 UC...189: x....189 - 14505 y....189 <= 0
 UC...190: x....190 - 14203 y....190 <= 0
 UC...191: x....191 - 10754 y....191 <= 0
 UC...192: x....192 - 10754 y....192 <= 0
 UC...193: x....193 - 10754 y....193 <= 0
 UC...194: x....194 - 10754 y....194 <= 0
 UC...195: x....195 - 10754 y....195 <= 0
Bounds
 0 <= x....001 <= 10754
 0 <= x....002 <= 10754
 0 <= x....003 <= 10754
 0 <= x....004 <= 10754
 0 <= x....005 <= 10754
 0 <= x....006 <= 10754
 0 <= x....007 <= 12972
 0 <= x....008 <= 14203
 0 <= x....009 <= 10754
 0 <= x....010 <= 10754
 0 <= x....011 <= 10754
 0 <= x....012 <= 11999
 0 <= x....013 <= 14505
 0 <= x....014 <= 14203
 0 <= x....015 <= 14203
 0 <= x....016 <= 14203
 0 <= x....017 <= 4500
 0 <= x....018 <= 14203
 0 <= x....019 <= 10754
 0 <= x....020 <= 10754
 0 <= x....021 <= 10754
 0 <= x....022 <= 10754
 0 <= x....023 <= 10754
 0 <= x....024 <= 56
 0 <= x....025 <= 10754
 0 <= x....026 <= 10754
 0 <= x....027 <= 10754
 0 <= x....028 <= 10754
 0 <= x....029 <= 10754
 0 <= x....030 <= 10754
 0 <= x....031 <= 10754
 0 <= x....032 <= 10754
 0 <= x....033 <= 10754
 0 <= x....034 <= 10754
 0 <= x....035 <= 10754
 0 <= x....036 <= 10754
 0 <= x....037 <= 10754
 0 <= x....038 <= 10754
 0 <= x....039 <= 10754
 0 <= x....040 <= 10754
 0 <= x....041 <= 10754
 0 <= x....042 <= 10754
 0 <= x....043 <= 10754
 0 <= x....044 <= 10754
 0 <= x....045 <= 10754
 0 <= x....046 <= 10754
 0 <= x....047 <= 10754
 0 <= x....048 <= 10754
 0 <= x....049 <= 10754
 0 <= x....050 <= 10754
 0 <= x....051 <= 10754
 0 <= x....052 <= 10754
 0 <= x....053 <= 10754
 0 <= x....054 <= 10754
 0 <= x....055 <= 10754
 0 <= x....056 <= 10754
 0 <= x....057 <= 10754
 0 <= x....058 <= 10754
 0 <= x....059 <= 10754
 0 <= x....060 <= 10754
 0 <= x....061 <= 65
 0 <= x....062 <= 10754
 0 <= x....063 <= 10754
 0 <= x....064 <= 10754
 0 <= x....065 <= 10754
 0 <= x....066 <= 10754
 0 <= x....067 <= 10754
 0 <= x....068 <= 10754
 0 <= x....069 <= 10754
 0 <= x....070 <= 10754
 0 <= x....071 <= 10754
 0 <= x....072 <= 10754
 0 <= x....073 <= 10754
 0 <= x....074 <= 10754
 0 <= x....075 <= 10754
 0 <= x....076 <= 10754
 0 <= x....077 <= 10754
 0 <= x....078 <= 10754
 0 <= x....079 <= 10754
 0 <= x....080 <= 10754
 0 <= x....081 <= 6000
 0 <= x....082 <= 10754
 0 <= x....083 <= 5000
 0 <= x....084 <= 10754
 0 <= x....085 <= 18000
 0 <= x....086 <= 10754
 0 <= x....087 <= 10754
 0 <= x....088 <= 10754
 0 <= x....089 <= 10754
 0 <= x....090 <= 10754
 0 <= x....091 <= 10754
 0 <= x....092 <= 10754
 0 <= x....093 <= 10754
 0 <= x....094 <= 10754
 0 <= x....095 <= 10754
 0 <= x....096 <= 10754
 0 <= x....097 <= 10754
 0 <= x....098 <= 10754
 0 <= x....099 <= 10754
 0 <= x....100 <= 10754
 0 <= x....101 <= 10754
 0 <= x....102 <= 10754
 0 <= x....103 <= 10754
 0 <= x....104 <= 10754
 0 <= x....105 <= 10754
 0 <= x....106 <= 10754
 0 <= x....107 <= 10754
 0 <= x....108 <= 10754
 0 <= x....109 <= 10754
 0 <= x....110 <= 10754
 0 <= x....111 <= 10754
 0 <= x....112 <= 10754
 0 <= x....113 <= 10754
 0 <= x....114 <= 10754
 0 <= x....115 <= 10754
 0 <= x....116 <= 5000
 0 <= x....117 <= 11013
 0 <= x....118 <= 3750
 0 <= x....119 <= 12972
 0 <= x....120 <= 2400
 0 <= x....121 <= 13177
 0 <= x....122 <= 3571.428571
 0 <= x....123 <= 12972
 0 <= x....124 <= 3571.428571
 0 <= x....125 <= 12972
 0 <= x....126 <= 5000
 0 <= x....127 <= 12972
 0 <= x....128 <= 5000
 0 <= x....129 <= 12972
 0 <= x....130 <= 6000
 0 <= x....131 <= 12972
 0 <= x....132 <= 6000
 0 <= x....133 <= 12972
 0 <= x....134 <= 4000
 0 <= x....135 <= 12972
 0 <= x....136 <= 4000
 0 <= x....137 <= 12972
 0 <= x....138 <= 746
 0 <= x....139 <= 12972
 0 <= x....140 <= 12972
 0 <= x....141 <= 12972
 0 <= x....142 <= 12972
 0 <= x....143 <= 10754
 0 <= x....144 <= 10754
 0 <= x....145 <= 10754
 0 <= x....146 <= 10754
 0 <= x....147 <= 10754
 0 <= x....148 <= 10754
 0 <= x....149 <= 10754
 0 <= x....150 <= 10754
 0 <= x....151 <= 394
 0 <= x....152 <= 11056
 0 <= x....153 <= 11999
 0 <= x....154 <= 254
 0 <= x....155 <= 10754
 0 <= x....156 <= 10754
 0 <= x....157 <= 10754
 0 <= x....158 <= 943
 0 <= x....159 <= 943
 0 <= x....160 <= 943
 0 <= x....161 <= 943
 0 <= x....162 <= 943
 0 <= x....163 <= 943
 0 <= x....164 <= 943
 0 <= x....165 <= 943
 0 <= x....166 <= 943
 0 <= x....167 <= 943
 0 <= x....168 <= 943
 0 <= x....169 <= 943
 0 <= x....170 <= 943
 0 <= x....171 <= 943
 0 <= x....172 <= 1245
 0 <= x....173 <= 1245
 0 <= x....174 <= 1245
 0 <= x....175 <= 1245
 0 <= x....176 <= 943
 0 <= x....177 <= 943
 0 <= x....178 <= 943
 0 <= x....179 <= 943
 0 <= x....180 <= 302
 0 <= x....181 <= 302
 0 <= x....182 <= 302
 0 <= x....183 <= 302
 0 <= x....184 <= 302
 0 <= x....185 <= 302
 0 <= x....186 <= 302
 0 <= x....187 <= 302
 0 <= x....188 <= 10754
 0 <= x....189 <= 14505
 0 <= x....190 <= 14203
 0 <= x....191 <= 10754
 0 <= x....192 <= 10754
 0 <= x....193 <= 10754
 0 <= x....194 <= 10754
 0 <= x....195 <= 10754
 0 <= y....001 <= 1
 0 <= y....002 <= 1
 0 <= y....003 <= 1
 0 <= y....004 <= 1
 0 <= y....005 <= 1
 0 <= y....006 <= 1
 0 <= y....007 <= 1
 0 <= y....008 <= 1
 0 <= y....009 <= 1
 0 <= y....010 <= 1
 0 <= y....011 <= 1
 0 <= y....012 <= 1
 0 <= y....013 <= 1
 0 <= y....014 <= 1
 0 <= y....015 <= 1
 0 <= y....016 <= 1
 0 <= y....017 <= 1
 0 <= y....018 <= 1
 0 <= y....019 <= 1
 0 <= y....020 <= 1
 0 <= y....021 <= 1
 0 <= y....022 <= 1
 0 <= y....023 <= 1
 0 <= y....024 <= 1
 0 <= y....025 <= 1
 0 <= y....026 <= 1
 0 <= y....027 <= 1
 0 <= y....028 <= 1
 0 <= y....029 <= 1
 0 <= y....030 <= 1
 0 <= y....031 <= 1
 0 <= y....032 <= 1
 0 <= y....033 <= 1
 0 <= y....034 <= 1
 0 <= y....035 <= 1
 0 <= y....036 <= 1
 0 <= y....037 <= 1
 0 <= y....038 <= 1
 0 <= y....039 <= 1
 0 <= y....040 <= 1
 0 <= y....041 <= 1
 0 <= y....042 <= 1
 0 <= y....043 <= 1
 0 <= y....044 <= 1
 0 <= y....045 <= 1
 0 <= y....046 <= 1
 0 <= y....047 <= 1
 0 <= y....048 <= 1
 0 <= y....049 <= 1
 0 <= y....050 <= 1
 0 <= y....051 <= 1
 0 <= y....052 <= 1
 0 <= y....053 <= 1
 0 <= y....054 <= 1
 0 <= y....055 <= 1
 0 <= y....056 <= 1
 0 <= y....057 <= 1
 0 <= y....058 <= 1
 0 <= y....059 <= 1
 0 <= y....060 <= 1
 0 <= y....061 <= 1
 0 <= y....062 <= 1
 0 <= y....063 <= 1
 0 <= y....064 <= 1
 0 <= y....065 <= 1
 0 <= y....066 <= 1
 0 <= y....067 <= 1
 0 <= y....068 <= 1
 0 <= y....069 <= 1
 0 <= y....070 <= 1
 0 <= y....071 <= 1
 0 <= y....072 <= 1
 0 <= y....073 <= 1
 0 <= y....074 <= 1
 0 <= y....075 <= 1
 0 <= y....076 <= 1
 0 <= y....077 <= 1
 0 <= y....078 <= 1
 0 <= y....079 <= 1
 0 <= y....080 <= 1
 0 <= y....081 <= 1
 0 <= y....082 <= 1
 0 <= y....083 <= 1
 0 <= y....084 <= 1
 0 <= y....085 <= 1
 0 <= y....086 <= 1
 0 <= y....087 <= 1
 0 <= y....088 <= 1
 0 <= y....089 <= 1
 0 <= y....090 <= 1
 0 <= y....091 <= 1
 0 <= y....092 <= 1
 0 <= y....093 <= 1
 0 <= y....094 <= 1
 0 <= y....095 <= 1
 0 <= y....096 <= 1
 0 <= y....097 <= 1
 0 <= y....098 <= 1
 0 <= y....099 <= 1
 0 <= y....100 <= 1
 0 <= y....101 <= 1
 0 <= y....102 <= 1
 0 <= y....103 <= 1
 0 <= y....104 <= 1
 0 <= y....105 <= 1
 0 <= y....106 <= 1
 0 <= y....107 <= 1
 0 <= y....108 <= 1
 0 <= y....109 <= 1
 0 <= y....110 <= 1
 0 <= y....111 <= 1
 0 <= y....112 <= 1
 0 <= y....113 <= 1
 0 <= y....114 <= 1
 0 <= y....115 <= 1
 0 <= y....116 <= 1
 0 <= y....117 <= 1
 0 <= y....118 <= 1
 0 <= y....119 <= 1
 0 <= y....120 <= 1
 0 <= y....121 <= 1
 0 <= y....122 <= 1
 0 <= y....123 <= 1
 0 <= y....124 <= 1
 0 <= y....125 <= 1
 0 <= y....126 <= 1
 0 <= y....127 <= 1
 0 <= y....128 <= 1
 0 <= y....129 <= 1
 0 <= y....130 <= 1
 0 <= y....131 <= 1
 0 <= y....132 <= 1
 0 <= y....133 <= 1
 0 <= y....134 <= 1
 0 <= y....135 <= 1
 0 <= y....136 <= 1
 0 <= y....137 <= 1
 0 <= y....138 <= 1
 0 <= y....139 <= 1
 0 <= y....140 <= 1
 0 <= y....141 <= 1
 0 <= y....142 <= 1
 0 <= y....143 <= 1
 0 <= y....144 <= 1
 0 <= y....145 <= 1
 0 <= y....146 <= 1
 0 <= y....147 <= 1
 0 <= y....148 <= 1
 0 <= y....149 <= 1
 0 <= y....150 <= 1
 0 <= y....151 <= 1
 0 <= y....152 <= 1
 0 <= y....153 <= 1
 0 <= y....154 <= 1
 0 <= y....155 <= 1
 0 <= y....156 <= 1
 0 <= y....157 <= 1
 0 <= y....158 <= 1
 0 <= y....159 <= 1
 0 <= y....160 <= 1
 0 <= y....161 <= 1
 0 <= y....162 <= 1
 0 <= y....163 <= 1
 0 <= y....164 <= 1
 0 <= y....165 <= 1
 0 <= y....166 <= 1
 0 <= y....167 <= 1
 0 <= y....168 <= 1
 0 <= y....169 <= 1
 0 <= y....170 <= 1
 0 <= y....171 <= 1
 0 <= y....172 <= 1
 0 <= y....173 <= 1
 0 <= y....174 <= 1
 0 <= y....175 <= 1
 0 <= y....176 <= 1
 0 <= y....177 <= 1
 0 <= y....178 <= 1
 0 <= y....179 <= 1
 0 <= y....180 <= 1
 0 <= y....181 <= 1
 0 <= y....182 <= 1
 0 <= y....183 <= 1
 0 <= y....184 <= 1
 0 <= y....185 <= 1
 0 <= y....186 <= 1
 0 <= y....187 <= 1
 0 <= y....188 <= 1
 0 <= y....189 <= 1
 0 <= y....190 <= 1
 0 <= y....191 <= 1
 0 <= y....192 <= 1
 0 <= y....193 <= 1
 0 <= y....194 <= 1
 0 <= y....195 <= 1
Binaries
 y....001  y....002  y....003  y....004  y....005  y....006  y....007 
 y....008  y....009  y....010  y....011  y....012  y....013  y....014 
 y....015  y....016  y....017  y....018  y....019  y....020  y....021 
 y....022  y....023  y....024  y....025  y....026  y....027  y....028 
 y....029  y....030  y....031  y....032  y....033  y....034  y....035 
 y....036  y....037  y....038  y....039  y....040  y....041  y....042 
 y....043  y....044  y....045  y....046  y....047  y....048  y....049 
 y....050  y....051  y....052  y....053  y....054  y....055  y....056 
 y....057  y....058  y....059  y....060  y....061  y....062  y....063 
 y....064  y....065  y....066  y....067  y....068  y....069  y....070 
 y....071  y....072  y....073  y....074  y....075  y....076  y....077 
 y....078  y....079  y....080  y....081  y....082  y....083  y....084 
 y....085  y....086  y....087  y....088  y....089  y....090  y....091 
 y....092  y....093  y....094  y....095  y....096  y....097  y....098 
 y....099  y....100  y....101  y....102  y....103  y....104  y....105 
 y....106  y....107  y....108  y....109  y....110  y....111  y....112 
 y....113  y....114  y....115  y....116  y....117  y....118  y....119 
 y....120  y....121  y....122  y....123  y....124  y....125  y....126 
 y....127  y....128  y....129  y....130  y....131  y....132  y....133 
 y....134  y....135  y....136  y....137  y....138  y....139  y....140 
 y....141  y....142  y....143  y....144  y....145  y....146  y....147 
 y....148  y....149  y....150  y....151  y....152  y....153  y....154 
 y....155  y....156  y....157  y....158  y....159  y....160  y....161 
 y....162  y....163  y....164  y....165  y....166  y....167  y....168 
 y....169  y....170  y....171  y....172  y....173  y....174  y....175 
 y....176  y....177  y....178  y....179  y....180  y....181  y....182 
 y....183  y....184  y....185  y....186  y....187  y....188  y....189 
 y....190  y....191  y....192  y....193  y....194  y....195 
End
